p cnf 100 40
x 4 6 -7 9 -11 12 13 14 -15 -18 -19 -20 -21 -22 26 -28 32 -33 -35 -36 38 -39 -40 -41 -42 -44 45 -46 -49 -50 53 -55 60 62 -63 65 -66 -72 -76 77 78 -79 -80 85 87 -88 -89 -90 -97 -99 0
x -1 7 8 -10 -12 13 -14 -17 -18 -21 -25 29 31 -35 -38 40 -43 -44 -45 -46 -47 -49 50 51 52 -53 56 -57 -61 62 64 65 66 68 -70 72 73 74 75 -76 78 79 -83 -84 86 -87 -88 -89 -90 -91 92 95 -100 0
x 1 -2 3 -4 6 7 13 -15 16 -17 -18 -19 20 23 29 -31 -34 -35 36 -38 -39 40 -41 -44 -45 -50 -51 -52 -53 -54 -55 57 58 59 -60 -61 -62 -63 -64 65 -66 68 75 76 77 86 -91 -93 -96 -97 100 0
x -1 -2 -3 -6 -8 -10 11 -12 14 18 -19 -24 26 -29 31 32 33 34 -35 -37 39 40 44 45 46 -49 50 52 -54 55 -57 58 -59 -60 -61 -63 64 -66 -68 70 -71 -72 75 79 -81 83 86 -95 -96 -98 99 100 0
x -6 7 9 -11 12 21 -22 -27 28 -29 -30 -32 -34 -36 -37 -41 -42 -44 -46 -49 -50 -51 -53 -55 56 57 -58 59 -60 61 -66 -69 74 77 -78 -79 80 -81 -82 -84 85 -87 89 -90 -91 -95 96 -97 -100 0
x 1 2 -3 -5 6 8 10 11 13 16 -21 22 23 26 -28 -31 -32 -36 -43 -44 -45 -46 -48 49 50 52 -53 55 56 -61 62 64 66 -67 -69 -72 -74 -76 77 81 -82 -84 88 -90 95 -96 -98 0
x -1 -2 3 7 10 11 13 16 19 -20 22 -24 -28 -29 -30 32 36 -38 39 45 -46 47 49 -51 -53 -55 -56 57 59 61 -64 -65 -66 -67 -69 -74 -76 79 -80 81 -82 -83 -84 85 -86 -87 91 -93 96 -98 -99 100 0
x 1 -5 -6 -8 9 11 13 14 15 17 19 -21 -22 24 -26 28 29 -30 -31 32 -34 36 -39 40 -41 42 44 -46 47 -50 51 -52 53 -55 -57 59 -60 63 -64 67 74 81 -82 87 -90 98 100 0
x 4 5 -8 9 -13 14 17 -18 19 -20 -21 -22 -24 27 -28 -30 -31 -33 34 -35 38 -39 42 43 45 -49 50 51 54 57 59 -60 61 -62 -64 -71 -72 -73 -75 77 -80 81 84 -86 -87 -88 89 95 -96 -97 98 99 -100 0
x 1 -3 5 -6 -9 10 11 12 13 14 -19 26 -27 28 -30 -31 -32 33 34 44 46 -49 -50 -51 53 -57 60 62 -66 67 69 -70 73 -77 78 -80 81 82 -86 -87 -88 -89 -93 -94 95 -96 97 0
x 1 5 6 -7 9 11 -12 -13 -14 16 -20 21 -23 -24 26 27 30 -31 -32 -33 34 37 -38 -39 -40 41 -43 45 48 50 51 -57 59 -66 69 -71 72 74 75 77 79 -80 -82 83 85 -87 92 94 96 -98 100 0
x 5 -7 -8 -11 -15 -16 19 20 21 -22 -23 -25 -26 -27 -29 -35 -37 -39 -42 44 45 -46 -47 -51 -52 54 56 57 59 -60 64 -65 66 67 68 -69 -70 71 -72 -74 -75 76 77 85 -88 -89 -90 100 0
x -1 -4 -5 6 7 12 -15 -16 21 -23 -24 -26 -28 -30 -35 38 39 -41 -42 -43 -44 45 -46 47 50 51 -52 -53 -54 -57 -58 61 62 64 65 68 70 71 72 75 77 -78 85 87 -89 90 -93 -95 97 -98 0
x 1 -2 -4 6 9 -11 12 14 15 -17 20 -21 -25 27 -28 -31 -33 34 35 -36 40 -41 42 -43 -47 -49 -52 -53 55 56 -66 68 69 70 -71 76 -79 80 81 83 84 -86 -87 90 91 92 94 96 -97 -98 0
x 5 -6 -8 9 -12 17 18 19 -20 -22 25 27 -28 29 -30 31 -32 -33 -36 37 -38 42 44 -45 49 -51 -54 -56 -57 60 61 -62 -65 -70 71 76 -77 -79 -80 81 -82 -83 -88 89 -91 92 97 0
x 3 4 5 6 -7 -8 -9 -10 -11 -12 13 14 -15 -20 26 -31 33 34 44 -49 -51 57 58 -59 61 62 -63 -64 65 68 -69 70 -73 -76 -79 81 82 -83 -84 85 87 -90 98 0
x 2 -3 -4 6 7 8 -10 -11 12 -13 -14 16 17 19 -20 21 -22 -23 24 28 31 -32 33 35 40 41 -42 43 -46 -49 -51 52 54 -55 59 64 65 69 -71 74 79 80 81 84 -87 91 92 -96 97 0
x 2 3 -4 -6 8 -10 -13 -15 -16 21 -23 -24 -26 27 -29 -30 -31 33 34 36 -39 -41 44 46 49 -50 51 -53 -54 -55 -56 -65 67 70 -73 74 -76 78 -79 80 81 -82 -83 85 90 92 -95 96 99 0
x 3 7 8 9 -10 11 -14 -17 18 -19 -20 24 25 -26 -30 32 33 34 -35 -41 43 -44 46 -50 -51 -54 55 56 -58 59 -61 62 -65 -70 74 -77 78 80 81 -82 -83 -84 87 91 -92 -94 -95 -96 97 98 0
x -1 2 -4 6 15 17 18 -20 22 -24 -26 29 30 -31 -32 36 39 -42 -49 50 52 -54 -55 -56 -57 58 -59 61 62 -63 -66 70 -71 72 78 -79 -80 81 82 86 -87 -90 91 94 -95 -97 0
x -6 10 -11 12 13 -15 -16 -17 -19 -20 -21 25 -26 27 28 -29 -30 -31 -35 37 39 -41 46 48 49 -50 -51 53 -54 -56 58 -60 62 69 -72 -73 75 77 -78 79 81 -85 86 -91 97 98 0
x -3 5 7 -9 -10 12 13 14 -19 -24 -25 -27 29 31 34 -35 -37 39 41 -42 47 -48 -49 53 54 55 56 59 64 -65 69 71 -73 74 -76 77 -80 -81 82 83 84 85 -87 -88 -90 91 93 -98 -99 100 0
x 1 -3 -4 -6 -9 -10 13 15 -16 18 -19 20 21 -24 -25 29 -30 33 -34 35 -37 39 40 41 -45 -47 -48 51 53 54 -56 59 -60 -64 -65 69 -70 -71 -73 -77 -80 82 -83 85 -90 92 -93 -95 -96 0
x 3 5 6 7 -9 -12 19 -20 -22 -23 -26 -31 34 35 36 38 40 41 42 -43 44 45 46 47 50 -51 -54 -56 60 -62 63 -64 -66 70 -74 -77 78 -81 82 -83 -84 87 88 -89 91 -93 -94 98 99 0
x 5 -6 11 -12 13 14 15 -16 19 -21 -22 23 -26 -32 -33 34 -36 -39 -40 43 -44 46 47 48 49 -53 -54 -55 -59 61 -64 -66 67 -68 70 71 -72 -74 76 77 -78 80 81 -82 -91 93 -94 95 -98 0
x -1 2 4 -5 6 14 17 -18 -21 -23 -25 -27 28 -29 -30 -33 -35 -41 43 45 -46 48 -49 -51 52 -53 -54 -55 -56 59 -60 -62 -64 -66 71 72 -74 -75 -76 -78 80 -82 83 84 -85 86 -88 -90 -91 -93 94 97 98 -99 0
x 1 -2 5 -6 -8 -13 -15 -16 17 -18 20 23 25 -29 30 31 -34 39 42 -43 -47 48 51 -56 -58 59 -60 62 65 66 67 -69 71 73 74 75 -76 77 80 81 83 -88 -89 91 -92 -94 95 -96 -97 0
x 1 2 -6 9 -10 -11 12 15 16 17 -18 -20 22 23 -25 -26 27 28 33 -36 -39 40 -42 -43 44 -47 -50 51 -54 57 -58 -61 62 65 -66 68 71 73 -74 75 76 81 -82 -83 85 -86 -87 88 -91 93 94 -97 -98 99 0
x 1 -2 4 -5 6 11 -13 14 -17 20 22 23 24 25 -27 28 -29 30 -31 35 -36 37 -39 -40 -43 -44 45 48 53 54 56 57 -58 59 60 61 -63 65 -66 67 -71 -72 74 -75 76 80 -81 -82 85 -86 -87 -92 -94 -97 0
x 1 4 -5 -6 7 8 9 11 -13 -17 20 -21 -24 27 35 39 40 41 -43 -44 -45 -46 -47 -48 50 51 52 -57 -60 -62 -65 67 -71 73 77 -78 -79 -81 85 87 88 -90 -91 92 -97 -99 0
x -2 -4 7 9 -10 11 -12 -13 -14 15 16 17 -18 19 26 27 31 -33 34 36 -39 -41 -45 46 49 -50 -51 -53 54 -57 -59 61 65 66 67 -70 72 -74 75 -76 -82 83 84 87 -88 -89 -90 -94 95 -100 0
x 2 6 10 -12 -13 -16 24 25 -26 29 -32 -34 -35 37 38 -39 40 41 42 -46 49 -51 -54 55 -56 59 -62 -65 -74 76 -77 -78 -84 85 -89 90 91 92 -93 -96 -97 98 -100 0
x -2 3 -5 -7 -10 13 -14 15 -20 23 25 27 28 -29 30 -35 -36 37 -39 40 -42 -44 -45 46 48 -49 -51 -52 54 -55 58 62 67 71 -73 80 -81 -83 84 85 87 88 -94 95 96 -97 -99 0
x 1 2 -3 -5 6 7 -10 -12 17 -20 21 -24 -25 29 30 -32 33 36 37 -38 42 43 -44 -45 -49 50 53 54 56 57 58 -61 -64 -66 -68 -69 -72 -74 -76 -77 79 80 -81 -83 84 -88 91 -93 -94 95 -97 -98 -99 0
x -2 -3 5 -8 9 16 17 18 -20 -22 -24 25 26 -27 30 31 32 33 36 -40 -42 -47 -50 -51 52 -55 58 -61 63 65 -67 68 69 71 -74 -77 78 -81 82 84 85 88 -89 -91 92 93 94 95 97 -98 -99 100 0
x -3 -5 -8 9 10 -12 14 -19 20 21 -22 -27 28 -30 31 32 34 -35 -37 -44 -46 -48 49 -51 -52 61 -66 67 -68 -70 74 75 76 79 80 -82 -83 -85 -86 -88 -91 -94 96 97 -99 0
x 1 -3 10 12 16 -19 20 27 -29 -34 35 36 37 38 39 -45 -48 49 50 -52 53 -55 -60 61 -62 -63 -65 68 -69 -70 -71 -75 77 79 81 -82 85 -86 -87 -88 89 90 -92 94 95 96 97 0
x -4 -6 -7 9 -11 13 14 15 -19 -20 25 27 28 -30 -31 -33 -34 -35 38 -39 40 -42 -43 -45 47 -50 -51 52 53 -56 59 -63 -66 -68 -69 -70 71 -72 73 74 -78 79 -80 -83 -84 85 86 88 95 -96 -99 0
x 2 -3 -10 -11 -14 18 19 21 22 -24 -25 27 28 -29 30 -31 -32 -33 -36 -37 -38 -39 -44 45 -46 49 -52 -53 57 58 62 65 -66 -67 70 71 73 -74 -75 76 77 81 -83 84 -87 -89 92 94 96 97 -98 99 0
x 2 -4 -5 -6 -7 10 13 -14 19 22 -24 26 28 29 30 31 -35 -36 37 -38 -39 41 42 50 51 -52 -53 -54 -55 60 62 65 68 71 -75 -76 -79 -80 81 87 90 -95 97 -99 0
g -20